1 3 100 278747.14
1 3 200 279777.01
1 3 300 286004.71
2 3 100 430560.99
2 3 200 443316.93
2 3 300 424376.31
3 3 100 381664.44
3 3 200 390815.26
3 3 300 386945.39
4 3 100 344202.35
4 3 200 348846.92
4 3 300 354922.70
5 3 100 279814.84
5 3 200 288628.37
5 3 300 302204.35
